Argumentos: 
./solver.release -i 23 -t 86400 -a 7 -h 86400 -w Testes/R2-i23 -m R2_modeloCom2345.mod -o R2_modeloCom2345.mod 
Seed: 1622927966
hidden-TXT/Sc-n110w4.txt
hidden-TXT/H0-n110w4-1.txt
hidden-TXT/WD-n110w4-0.txt hidden-TXT/WD-n110w4-1.txt hidden-TXT/WD-n110w4-6.txt hidden-TXT/WD-n110w4-4.txt 
Reading model section from R2_modeloCom2345.mod...
367 lines were read
Reading data section from Testes/R2-i23/23.dat...
19773 lines were read
Generating obj...
Generating H1turnoDia...
Generating H2coberturaMinima...
Generating H3AsucessaoTurnos...
Generating H3BsucessaoTurnos...
Generating H4qualificacao...
Generating S1coberturaOtima...
Generating S2d...
Generating S2dHist...
Generating S2b...
Generating S2bHist...
Generating auxS5...
Generating S6a...
Generating S6b...
Generating auxS7...
Generating S7...
Model has been successfully generated
Writing problem data to `Testes/R2-i23/23.lp'...
513773 lines were written
CPX0000  Tried aggregator 2 times.
CPX0000  MIP Presolve eliminated 21913 rows and 78809 columns.
CPX0000  MIP Presolve modified 5930 coefficients.
CPX0000  Aggregator did 13 substitutions.
CPX0000  Reduced MIP has 23441 rows, 34005 columns, and 299975 nonzeros.
CPX0000  Reduced MIP has 33365 binaries, 640 generals, 0 SOSs, and 0 indicators.
CPX0000  Presolve time = 0.55 sec. (330.08 ticks)
CPX0000  Found incumbent of value 642585.000000 after 1.41 sec. (1015.16 ticks)
[1m[30m[ZEN] [0m00:00:01 [1m[34m 642585.00[1m[32m  100.00%
[0mCPX0000  Probing time = 0.03 sec. (11.12 ticks)
CPX0000  Tried aggregator 1 time.
CPX0000  Reduced MIP has 23441 rows, 34005 columns, and 299975 nonzeros.
CPX0000  Reduced MIP has 33365 binaries, 640 generals, 0 SOSs, and 0 indicators.
CPX0000  Presolve time = 0.15 sec. (109.67 ticks)
CPX0000  Probing time = 0.03 sec. (10.51 ticks)
CPX0000  Clique table members: 14964.
CPX0000  MIP emphasis: balance optimality and feasibility.
CPX0000  MIP search method: dynamic search.
CPX0000  Parallel mode: none, using 1 thread.
CPX0000  Root relaxation solution time = 3.73 sec. (1849.70 ticks)
CPX0000
CPX0000          Nodes                                         Cuts/
CPX0000     Node  Left     Objective  IInf  Best Integer    Best Bound    ItCnt     Gap
CPX0000
CPX0000  *     0+    0                       642585.0000        0.0000     8625  100.00%
CPX0000        0     0      790.0000   980   642585.0000      790.0000     8625   99.88%
CPX0000  *     0+    0                         9840.0000      790.0000     8625   91.97%
[1m[30m[ZEN] [0m00:00:06 [1m[34m   9840.00[1m[32m   91.97%
[0mCPX0000        0     0      886.9048  1429     9840.0000    Cuts: 1347    14028   90.99%
CPX0000        0     0      980.5000  1618     9840.0000     Cuts: 745    17221   90.04%
CPX0000        0     0      999.6667  1654     9840.0000     Cuts: 465    21031   89.84%
CPX0000  *     0+    0                         1750.0000      999.6667    21031   42.88%
[1m[30m[ZEN] [0m00:00:24 [1m[34m   1750.00[1m[32m   42.88%
[0mCPX0000        0     0     1001.6667  1507     1750.0000     Cuts: 491    24770   42.76%
CPX0000        0     0     1001.6667  1572     1750.0000     Cuts: 325    27998   42.76%
CPX0000        0     0     1001.6667  1323     1750.0000     Cuts: 135    29866   42.76%
CPX0000        0     0     1001.6667  1495     1750.0000     Cuts: 324    32090   42.76%
CPX0000  *     0+    0                         1190.0000     1001.6667    32090   15.83%
[1m[30m[ZEN] [0m00:00:46 [1m[34m   1190.00[1m[32m   15.83%
[0mCPX0000        0     2     1001.6667   908     1190.0000     1005.0000    32090   15.55%
CPX0000  Elapsed time = 46.88 sec. (26922.77 ticks, tree = 0.00 MB
CPX0000        1     3     1011.6667   778     1190.0000     1005.0000    38426   15.55%
CPX0000        2     4     1011.6667   811     1190.0000     1011.6667    39670   14.99%
CPX0000        3     5     1013.3333   867     1190.0000     1011.6667    41474   14.99%
CPX0000        4     6     1013.3333   720     1190.0000     1011.6667    41792   14.99%
CPX0000        5     7     1018.3333   742     1190.0000     1011.6667    44869   14.99%
CPX0000        6     8     1018.3333   657     1190.0000     1011.6667    48895   14.99%
CPX0000        7     9     1018.3333   659     1190.0000     1011.6667    50787   14.99%
CPX0000        8    10     1020.0000   729     1190.0000     1011.6667    52367   14.99%
CPX0000        9    11     1018.3333   704     1190.0000     1011.6667    52530   14.99%
CPX0000       14    16     1025.0000   525     1190.0000     1011.6667    54776   14.99%
CPX0000  Elapsed time = 61.64 sec. (35669.61 ticks, tree = 3.05 MB
CPX0000       23    25     1040.0000   581     1190.0000     1011.6667    57326   14.99%
CPX0000       35    37     1050.0000   449     1190.0000     1011.6667    59423   14.99%
CPX0000       56    58     1050.0000   526     1190.0000     1011.6667    61504   14.99%
CPX0000       88    90     1060.0000   211     1190.0000     1011.6667    64057   14.99%
CPX0000      104   106     1060.0000   188     1190.0000     1011.6667    67716   14.99%
CPX0000      124   126     1060.0000   189     1190.0000     1011.6667    72282   14.99%
CPX0000      153   155     1060.0000    83     1190.0000     1011.6667    76036   14.99%
CPX0000      200   202     1060.0000   178     1190.0000     1011.6667    78382   14.99%
CPX0000      227   229     1060.0000   223     1190.0000     1011.6667    81871   14.99%
CPX0000      243   245     1060.0000   166     1190.0000     1011.6667    86238   14.99%
CPX0000  Elapsed time = 78.16 sec. (45853.82 ticks, tree = 71.44 MB
CPX0000      261   263     1062.5000   111     1190.0000     1011.6667    91009   14.99%
CPX0000      291   293     1070.0000   104     1190.0000     1011.6667    95539   14.99%
CPX0000      340   342     1120.0000     9     1190.0000     1011.6667    98448   14.99%
CPX0000      376   378     1110.0000    95     1190.0000     1011.6667   100636   14.99%
CPX0000      410   412     1110.0000    28     1190.0000     1011.6667   103953   14.99%
CPX0000  *   450+  450                         1170.0000     1011.6667   106009   13.53%
[1m[30m[ZEN] [0m00:01:27 [1m[34m   1170.00[1m[32m   13.53%
[0mCPX0000      460   462     1125.0000    89     1170.0000     1011.6667   106518   13.53%
CPX0000      500   502     1130.0000     8     1170.0000     1011.6667   109148   13.53%
CPX0000      530   532     1145.0000    87     1170.0000     1011.6667   112963   13.53%
CPX0000  *   551   534      integral     0     1160.0000     1011.6667   113591   12.79%
[1m[30m[ZEN] [0m00:01:31 [1m[34m   1160.00[1m[32m   12.79%
[0mCPX0000      555   538     1021.6667   821     1160.0000     1011.6667   115692   12.79%
CPX0000  Elapsed time = 92.94 sec. (55320.25 ticks, tree = 160.86 MB
CPX0000      579   562     1040.0000   568     1160.0000     1011.6667   118001   12.79%
CPX0000      617   600     1070.0000   406     1160.0000     1011.6667   120258   12.79%
CPX0000      645   628     1070.0000   285     1160.0000     1011.6667   122480   12.79%
CPX0000  *   651+  399                         1080.0000     1011.6667   125013    6.33%
[1m[30m[ZEN] [0m00:01:38 [1m[34m   1080.00[1m[32m    6.33%
[0mCPX0000      656   406     1070.0000   245     1080.0000     1011.6667   126260    6.33%
CPX0000      669   419     1070.0000   220     1080.0000     1011.6667   131275    6.33%
CPX0000      683   433     1070.0000   268     1080.0000     1011.6667   135770    6.33%
CPX0000      695   445     1070.0000   275     1080.0000     1011.6667   141061    6.33%
CPX0000      706   456     1070.0000   276     1080.0000     1011.6667   144924    6.33%
CPX0000      719   461     1021.6667   951     1080.0000     1013.3333   149489    6.17%
CPX0000      721   463     1023.3333  1035     1080.0000     1016.6667   152046    5.86%
CPX0000  Elapsed time = 110.96 sec. (66437.22 ticks, tree = 138.22 MB
CPX0000      728   470     1058.3333   888     1080.0000     1016.6667   153975    5.86%
CPX0000  *   761+    0                         1070.0000     1070.0000   184686    0.00%
CPX0000  *   761     0      integral     0     1070.0000     1070.0000   184686    0.00%
CPX0000
CPX0000  GUB cover cuts applied:  551
CPX0000  Clique cuts applied:  895
CPX0000  Cover cuts applied:  74
CPX0000  Implied bound cuts applied:  2
CPX0000  Mixed integer rounding cuts applied:  140
CPX0000  Zero-half cuts applied:  453
CPX0000  Lift and project cuts applied:  14
CPX0000  Gomory fractional cuts applied:  94
CPX0000
CPX0000  Root node processing (before b&c):
CPX0000    Real time             =   46.82 sec. (26865.25 ticks)
CPX0000  Sequential b&c:
CPX0000    Real time             =  101.24 sec. (67993.43 ticks)
CPX0000                            ------------
CPX0000  Total (root+branch&cut) =  148.05 sec. (94858.68 ticks)
[1m[30m[ZEN] [0m00:02:28 [1m[34m   1070.00[1m[32m    0.00%
[0mH2 understaffing: 0
H3 shiftTypeSuccessions: 0
S1 optimalCoverage: 0
S2a consecutiveShift: 18015 = (1201,0 )
S2b consecutiveWorkingDays: 24060 = ( 802,0 )
S3 consecutiveDaysOff: 16050 = ( 535,0 )
S4 preferences: 100
S5 completeWeekend: 0
S6 totalAssignments: 940
S7 totalWorkingWeekeends: 30
 

Cost Solution: 59195

       |M|T|W|T|F|S|S| |M|T|W|T|F|S|S| |M|T|W|T|F|S|S| |M|T|W|T|F|S|S|
------------------------------------------------------------------------
HN_0   |D|L|-|D|-|L|N| |-|E|N|-|D|-|-| |-|N|-|E|-|E|D| |-|N|N|N|-|-|-|
HN_1   |-|L|-|-|-|-|E| |L|-|-|-|-|-|-| |L|-|-|D|N|-|-| |-|N|-|-|-|-|-|
HN_2   |-|N|-|L|-|-|-| |-|L|-|-|-|-|-| |-|E|N|N|-|N|-| |E|-|-|-|-|-|-|
HN_3   |N|-|N|N|N|-|-| |D|E|E|L|N|-|-| |E|N|N|-|E|E|E| |E|-|E|D|D|E|E|
HN_4   |L|-|-|E|D|-|-| |-|D|-|-|N|-|-| |-|-|L|N|-|L|L| |-|N|-|-|D|-|-|
HN_5   |D|-|-|N|N|-|-| |-|-|-|D|-|-|-| |-|E|-|E|E|-|-| |L|-|E|E|N|-|-|
HN_6   |-|D|-|E|L|-|-| |-|N|-|D|L|L|L| |-|D|D|E|D|-|-| |D|E|-|L|-|-|-|
HN_7   |-|E|E|-|D|-|-| |L|-|D|L|-|-|-| |E|D|E|-|E|L|L| |-|-|D|L|N|-|-|
HN_8   |L|L|-|-|E|N|N| |-|E|L|-|-|N|N| |N|-|N|-|D|-|-| |-|E|D|D|-|-|-|
HN_9   |N|N|-|E|-|E|D| |N|N|-|L|L|-|-| |-|L|L|-|-|-|-| |-|D|-|D|-|-|-|
HN_10  |-|-|N|-|D|L|L| |-|E|D|L|-|-|-| |D|-|L|L|-|-|-| |N|-|L|L|-|L|L|
HN_11  |-|-|-|-|E|-|-| |-|-|-|-|D|-|-| |-|-|-|D|N|N|-| |-|N|-|-|D|-|-|
HN_12  |-|-|-|N|-|E|D| |-|-|-|D|L|-|-| |-|E|E|L|-|-|-| |N|-|N|-|L|-|-|
HN_13  |L|-|N|-|L|N|N| |-|-|E|-|E|N|N| |-|-|D|-|L|-|-| |E|D|D|N|N|-|-|
HN_14  |E|D|-|-|D|-|-| |-|N|-|-|-|E|E| |-|-|-|L|L|-|-| |-|D|E|D|D|-|-|
HN_15  |D|-|L|-|-|-|-| |E|L|N|-|D|E|D| |N|-|N|-|E|N|N| |N|-|L|-|-|-|-|
HN_16  |E|E|E|D|L|-|-| |D|E|E|D|N|-|-| |D|L|L|-|E|D|D| |L|L|-|E|E|N|N|
HN_17  |-|L|L|-|L|-|-| |N|N|-|-|-|-|-| |-|E|-|E|D|D|L| |-|E|N|-|-|-|-|
HN_18  |N|-|D|D|N|-|-| |D|E|N|N|-|D|D| |N|N|-|D|D|D|E| |N|-|D|E|N|N|N|
HN_19  |-|D|D|L|L|-|-| |-|D|L|-|-|D|D| |D|-|-|-|N|-|-| |L|-|-|E|D|E|D|
NU_20  |-|-|-|D|-|E|E| |E|-|-|D|L|-|-| |-|E|-|D|N|-|-| |D|-|-|-|D|-|-|
NU_21  |E|-|L|L|L|L|L| |-|D|D|E|D|-|-| |E|D|D|D|E|-|-| |L|L|L|N|-|L|L|
NU_22  |E|E|E|E|E|-|-| |L|L|L|N|N|-|-| |E|D|L|-|E|D|E| |D|-|D|D|D|D|E|
NU_23  |-|-|-|L|-|-|-| |D|L|L|-|E|-|-| |-|-|E|-|L|L|N| |-|D|D|-|-|-|-|
NU_24  |-|L|-|N|-|-|-| |-|-|L|-|D|-|-| |L|-|D|-|L|N|N| |-|L|N|N|-|-|-|
NU_25  |-|N|-|-|D|E|E| |-|-|D|-|E|-|-| |-|E|E|N|-|-|-| |-|E|E|-|L|-|-|
NU_26  |-|N|-|-|-|-|-| |-|N|-|-|-|-|-| |L|-|-|-|-|-|-| |L|-|-|D|-|-|-|
NU_27  |-|E|-|-|-|-|-| |D|-|-|-|-|-|-| |L|-|-|N|-|N|-| |-|E|L|-|-|-|-|
NU_28  |E|-|-|-|E|N|N| |-|D|-|-|D|-|-| |-|-|L|-|D|-|-| |N|-|D|L|-|-|-|
NU_29  |N|-|L|N|-|-|-| |E|-|N|N|N|N|N| |-|L|L|-|L|-|-| |D|D|-|N|-|-|-|
NU_30  |-|-|D|-|-|-|-| |-|L|-|N|N|-|-| |D|-|-|L|-|-|-| |-|L|L|-|E|E|D|
NU_31  |D|-|-|-|-|-|-| |-|E|N|N|-|E|E| |-|-|-|D|D|-|-| |-|E|D|L|-|-|-|
NU_32  |N|-|D|E|D|D|N| |-|N|N|N|N|-|-| |N|N|N|N|N|-|-| |E|-|E|L|L|L|L|
NU_33  |N|-|D|E|D|E|D| |-|D|D|E|N|-|-| |L|L|L|N|N|-|-| |E|D|D|-|D|D|D|
NU_34  |N|-|-|-|-|-|E| |D|L|-|E|-|-|-| |-|E|-|-|-|-|-| |-|L|-|-|L|-|-|
NU_35  |E|-|E|D|N|-|-| |N|N|-|N|-|L|N| |-|L|-|-|E|N|N| |-|-|L|-|L|-|-|
NU_36  |-|D|-|-|-|D|D| |N|N|-|L|L|-|-| |-|-|-|N|-|-|-| |D|D|L|-|E|-|-|
NU_37  |-|-|-|D|-|L|L| |L|-|-|-|E|-|-| |-|D|D|L|L|-|-| |-|-|L|-|N|-|-|
NU_38  |L|L|L|-|E|E|D| |L|L|-|E|D|E|E| |N|-|L|N|N|-|-| |E|D|D|E|E|-|-|
NU_39  |-|E|L|-|-|L|L| |-|D|-|E|-|N|N| |-|-|D|N|-|-|-| |L|N|N|N|N|-|-|
CT_40  |-|-|E|D|-|-|D| |-|-|L|L|-|-|-| |-|L|-|-|-|-|-| |-|E|-|-|-|-|-|
CT_41  |-|-|-|-|E|-|-| |-|N|-|-|E|-|-| |-|-|N|-|D|-|-| |-|E|E|-|-|-|-|
CT_42  |E|L|-|N|N|N|N| |N|-|E|D|E|L|N| |-|D|E|E|D|-|-| |E|D|E|D|D|-|-|
CT_43  |-|N|-|-|-|-|-| |-|-|L|-|-|-|-| |-|D|-|-|D|-|-| |-|E|-|-|-|-|-|
CT_44  |-|D|-|D|N|-|-| |-|-|D|L|-|N|N| |-|-|-|D|-|-|-| |-|L|L|N|-|-|-|
CT_45  |E|D|L|L|-|L|L| |N|N|-|N|-|-|-| |L|-|L|N|-|-|-| |N|N|N|-|-|-|-|
CT_46  |-|-|E|L|L|-|-| |-|-|N|-|D|-|-| |-|L|-|L|-|N|N| |-|-|E|E|-|-|-|
CT_47  |D|D|-|L|L|-|-| |D|L|L|N|N|-|-| |D|D|D|D|-|E|L| |L|L|-|D|D|N|N|
CT_48  |-|L|L|-|-|-|-| |-|-|E|-|D|E|D| |E|-|-|E|D|-|-| |-|-|E|-|D|-|-|
CT_49  |E|E|D|L|L|-|-| |E|E|E|D|D|-|-| |D|L|-|E|E|D|L| |L|-|D|E|E|E|D|
CT_50  |L|-|D|E|L|-|-| |-|-|D|-|L|L|L| |L|L|-|D|-|-|-| |-|N|-|-|D|L|N|
CT_51  |-|E|N|-|E|-|-| |E|-|D|D|D|-|-| |E|E|D|-|-|-|-| |E|-|-|-|-|-|-|
CT_52  |D|L|-|D|E|N|N| |-|D|-|-|N|-|-| |D|L|L|-|D|-|-| |N|-|L|-|D|D|D|
CT_53  |-|D|-|L|-|-|-| |-|D|N|-|-|L|L| |-|N|-|-|-|-|-| |N|-|N|N|N|-|-|
CT_54  |N|N|-|E|D|D|D| |N|-|E|D|D|D|L| |-|D|E|D|L|-|-| |E|L|L|N|N|-|-|
CT_55  |L|L|L|-|-|-|-| |E|N|-|-|-|N|-| |E|-|-|-|E|-|-| |D|-|N|-|-|-|-|
CT_56  |-|-|D|-|-|-|E| |L|N|-|-|-|-|-| |-|-|D|-|-|-|-| |-|-|-|L|-|-|-|
CT_57  |N|N|N|N|-|-|-| |D|-|D|L|-|-|-| |N|-|-|-|N|-|-| |-|N|N|-|-|-|-|
CT_58  |-|D|-|-|-|-|-| |L|-|E|-|-|-|-| |-|-|-|E|-|-|-| |-|-|-|L|-|-|-|
CT_59  |-|D|D|-|N|-|-| |N|-|-|D|E|D|D| |E|-|-|E|L|-|-| |N|-|N|N|N|-|-|
CT_60  |L|-|D|-|-|-|-| |L|-|-|-|E|-|-| |-|D|L|-|-|E|D| |E|-|N|-|E|-|-|
CT_61  |N|-|-|-|-|-|-| |E|L|-|D|-|-|-| |-|D|N|-|N|-|-| |L|-|-|D|-|-|L|
CT_62  |N|N|N|N|N|-|-| |D|L|L|L|N|-|-| |N|N|N|N|-|E|D| |D|N|N|-|E|E|E|
CT_63  |D|E|E|-|D|N|N| |-|L|N|N|-|-|-| |N|-|N|-|-|-|-| |E|L|-|-|-|D|E|
CT_64  |N|-|N|N|-|-|-| |N|-|E|D|L|-|-| |N|-|E|-|N|-|-| |N|-|-|-|-|-|-|
CT_65  |D|E|D|L|L|-|-| |E|D|E|L|L|-|-| |D|E|D|-|L|L|L| |N|-|L|L|L|L|L|
CT_66  |-|-|E|D|E|-|-| |D|D|D|-|L|-|-| |D|E|E|L|L|-|-| |-|-|N|-|-|N|N|
CT_67  |L|-|-|D|-|-|-| |E|-|-|-|-|-|-| |N|-|-|-|-|E|-| |-|E|-|-|-|-|-|
CT_68  |L|L|L|-|-|D|E| |L|-|-|E|-|-|-| |D|N|-|-|D|-|-| |-|-|-|-|L|-|-|
CT_69  |-|L|N|-|-|-|-| |-|-|-|D|-|D|L| |L|L|-|E|N|-|-| |-|-|-|D|L|-|-|
CT_70  |D|-|N|N|-|-|-| |D|E|-|N|-|D|E| |-|D|-|L|-|D|E| |L|N|-|E|-|-|-|
CT_71  |D|-|-|-|N|-|-| |D|D|-|-|-|-|D| |-|E|-|-|-|-|-| |-|D|-|D|E|-|-|
CT_72  |-|N|-|L|-|-|-| |-|-|D|-|-|-|-| |L|-|-|-|-|-|-| |-|D|-|-|-|-|-|
CT_73  |D|D|-|-|L|-|-| |-|-|D|-|-|-|-| |-|-|N|-|-|-|-| |E|-|-|-|-|-|-|
CT_74  |-|-|D|-|-|-|-| |-|-|N|-|N|-|-| |-|-|-|L|L|-|-| |-|L|L|-|-|-|-|
CT_75  |E|-|-|E|E|-|-| |E|D|-|E|E|-|-| |L|-|N|-|E|-|-| |D|E|E|D|L|-|-|
CT_76  |N|N|-|E|E|-|-| |D|E|E|E|L|-|-| |D|N|-|D|E|L|L| |N|-|L|N|N|N|N|
CT_77  |D|E|E|E|E|-|-| |L|L|L|L|L|-|-| |E|N|-|D|E|D|E| |D|-|D|E|E|D|E|
CT_78  |L|N|N|-|D|L|L| |L|N|-|D|E|E|E| |-|E|E|N|N|-|-| |E|E|E|D|L|-|-|
CT_79  |-|-|L|-|L|-|-| |-|-|N|-|-|-|-| |N|-|N|-|-|N|-| |-|-|-|L|-|-|-|
TR_80  |-|D|-|L|-|-|-| |L|-|E|D|N|-|-| |D|D|-|E|D|E|E| |E|D|-|-|N|-|-|
TR_81  |D|-|E|D|D|-|-| |-|-|D|-|-|-|-| |-|E|L|-|-|-|-| |L|-|N|N|N|-|-|
TR_82  |D|-|-|-|N|-|-| |-|N|N|-|-|E|E| |-|D|E|-|-|-|-| |-|D|E|E|-|-|-|
TR_83  |E|E|D|-|D|N|N| |N|-|E|E|L|-|-| |-|E|D|D|-|-|-| |E|-|D|-|-|-|-|
TR_84  |E|-|D|D|N|-|-| |-|N|N|-|D|-|-| |D|E|-|N|-|L|L| |-|D|D|-|L|-|-|
TR_85  |-|-|N|-|-|-|-| |N|-|-|-|-|-|-| |-|L|-|-|-|-|-| |-|D|-|-|-|-|D|
TR_86  |-|E|-|-|E|-|-| |E|D|D|-|-|-|-| |N|-|D|E|-|-|-| |D|-|D|-|E|-|-|
TR_87  |N|-|-|L|-|-|-| |-|E|-|-|E|E|E| |L|L|L|N|-|-|-| |L|N|N|-|-|D|D|
TR_88  |-|L|-|-|E|-|-| |E|-|E|E|-|E|D| |N|N|-|L|L|-|-| |-|D|D|E|L|-|-|
TR_89  |E|N|-|E|E|L|N| |N|-|E|E|D|-|-| |E|E|N|N|N|-|-| |D|-|E|D|E|D|E|
TR_90  |-|L|-|E|-|D|D| |-|L|N|N|-|-|-| |N|N|-|-|L|-|-| |-|-|-|-|L|-|-|
TR_91  |N|-|E|E|D|-|-| |E|D|D|E|E|-|-| |E|D|D|N|-|L|N| |N|-|E|E|D|N|N|
TR_92  |-|-|-|E|-|-|-| |-|-|L|-|-|N|-| |-|-|-|L|-|-|-| |-|-|-|L|-|-|-|
TR_93  |N|-|L|N|-|-|-| |-|E|D|-|E|-|-| |-|-|E|D|D|-|-| |-|L|L|-|-|-|-|
TR_94  |-|E|D|L|-|-|-| |D|-|-|-|L|N|N| |-|-|-|L|-|-|-| |N|-|E|L|-|-|-|
TR_95  |-|N|-|-|-|-|-| |D|-|-|-|-|-|D| |E|-|-|-|-|-|-| |-|N|-|-|-|-|-|
TR_96  |D|D|D|L|-|-|-| |L|-|N|-|D|-|-| |L|N|-|-|L|-|-| |E|N|N|N|N|-|-|
TR_97  |L|L|N|-|E|E|L| |L|N|-|D|E|-|-| |E|L|L|N|N|-|-| |E|E|-|E|E|D|E|
TR_98  |-|D|E|E|-|L|L| |N|-|E|L|-|-|-| |-|N|-|E|E|-|-| |L|L|L|N|-|-|-|
TR_99  |L|N|-|-|L|-|-| |E|E|E|L|-|L|L| |N|-|-|-|-|N|N| |N|N|-|L|-|-|-|
TR_100 |L|N|N|N|N|-|-| |D|L|N|N|N|-|-| |L|L|N|-|D|D|E| |D|E|-|D|D|E|E|
TR_101 |D|L|L|N|N|-|-| |D|L|L|L|L|-|-| |E|E|L|-|N|N|N| |N|-|E|E|N|N|N|
TR_102 |-|-|-|-|D|-|-| |-|-|-|-|L|-|-| |-|-|-|E|E|-|-| |-|-|-|-|-|N|-|
TR_103 |D|-|N|-|-|E|L| |L|-|-|D|-|-|-| |D|-|L|-|-|-|-| |D|L|-|L|-|-|-|
TR_104 |E|D|L|-|E|D|E| |D|D|-|N|N|-|-| |D|D|E|D|E|-|-| |L|L|L|N|-|L|L|
TR_105 |-|E|E|-|L|L|L| |-|-|-|-|D|D|E| |L|N|N|-|N|-|-| |-|E|D|-|N|-|-|
TR_106 |L|-|E|D|D|-|-| |E|E|D|E|D|-|-| |D|D|D|D|-|E|D| |L|N|-|D|D|E|L|
TR_107 |E|E|E|N|-|D|E| |N|N|-|N|N|-|-| |-|-|E|-|L|L|L| |-|-|-|-|D|-|-|
TR_108 |-|-|-|-|L|-|-| |-|-|-|-|E|N|-| |L|-|-|-|-|-|-| |-|L|-|-|-|-|-|
TR_109 |N|N|-|D|-|-|-| |L|N|-|-|-|D|L| |L|N|-|-|D|N|N| |-|E|N|N|-|-|-|


Hard constraint violations
--------------------------

Minimal coverage constraints: 0
Required skill constraints: 0
Illegal shift type succession constraints: 0
Single assignment per day: 0


Cost per constraint type
------------------------

Total assignment constraints: 940
Consecutive constraints: 42075
Non working days constraints: 16050
Preferences: 100
Max working weekend: 30
Complete weekends: 0
Optimal coverage constraints: 0

------------------------

Total cost: 59195
